DATASET = "thpack1";
INSTANCE = "088";

WIDTH = 233;
HEIGHT = 220;
LENGTH = 587;

NO_OF_SHAPES = 3;
size = [|
  100,60,40 |
  89,67,34 |
  92,80,38 |
|];

verticality = [|
  0,1,1 |
  0,1,1 |
  0,0,1 |
|];

box_count = [
  45,
  44,
  37,
];
